# Objective value = 16418.37
B0(8) 0
B1(8) 0
B2(8) 0
B3(8) 0
B4(8) 0
B5(8) 0
B6(8) 1
B7(8) 0
B8(8) 0
B9(8) 0
B10(8) 0
B11(8) 0
B12(8) 0
B13(8) 0
B14(8) 0
B15(8) 0
B16(8) 0
B17(8) 0
B18(8) 0
B19(8) 0
B20(8) 0
B21(8) 0
B22(8) 0
B23(8) 0
B24(8) 0
B25(8) 0
B26(8) 0
B27(8) 0
B28(8) 0
B29(8) 0
B30(8) 0
B31(8) 0
B32(8) 0
B33(8) 1
B34(8) 0
B35(8) 0
B36(8) 0
B37(8) 0
B38(8) 0
B39(8) 0
B40(8) 0
B41(8) 0
B42(8) 0
B43(8) 0
B44(8) 0
B45(8) 0
B46(8) 0
B47(8) 0
B48(8) 0
B49(8) 0
B50(8) 0
B51(8) 0
B52(8) 0
B53(8) 0
B54(8) 0
B55(8) 0
B56(8) 0
B57(8) 0
B58(8) 0
B59(8) 0
B60(8) 0
B61(8) 0
B62(8) 0
B63(8) 0
B64(8) 0
B65(8) 0
B66(8) 0
B67(8) 0
B68(8) 0
B69(8) 0
B70(8) 0
B71(8) 0
B72(8) 0
B73(8) 0
B74(8) 0
B75(8) 0
B76(8) 0
B77(8) 0
B78(8) 0
B79(8) 0
B80(8) 0
B81(8) 0
B82(8) 0
B83(8) 0
B84(8) 0
B85(8) 0
B86(8) 0
B87(8) 0
B88(8) 0
B89(8) 0
B90(8) 0
B91(8) 0
B92(8) 0
B93(8) 0
B94(8) 0
B95(8) 0
B96(8) 0
B97(8) 0
B98(7) 0
B99(8) 0
B100(8) 0
B101(8) 0
B102(8) 0
B103(8) 0
B104(8) 0
B105(8) 0
B106(8) 0
B107(8) 0
B108(8) 0
B109(8) 0
B110(8) 0
B111(8) 0
B112(8) 0
B113(8) 0
B114(8) 0
B115(8) 0
B116(8) 0
B117(8) 0
B118(8) 0
B119(8) 0
B120(8) 0
B121(7) 1
B122(8) 0
B123(8) 0
B124(8) 0
B125(8) 0
B126(8) 0
B127(8) 0
B128(8) 0
B129(8) 0
B130(8) 0
B131(8) 0
B132(8) 0
B133(8) 0
B134(8) 0
B135(8) 0
B136(8) 0
B137(8) 0
B138(8) 0
B139(8) 0
B140(8) 0
B141(8) 0
B142(8) 0
B143(8) 0
B144(8) 0
B145(8) 0
B146(8) 0
B147(8) 0
B148(8) 0
B149(8) 0
B150(8) 0
B151(8) 0
B152(8) 0
B153(8) 0
B154(8) 0
B155(8) 0
B156(8) 0
B157(8) 0
B158(8) 0
B159(8) 0
B160(8) 0
B161(8) 0
B162(8) 0
B163(8) 0
B164(8) 0
B165(8) 0
B166(7) 1
B167(8) 0
B168(8) 0
B169(8) 0
B170(8) 0
B171(8) 0
B172(8) 0
B173(8) 0
B174(8) 0
B175(8) 0
B176(8) 0
B177(8) 0
B178(8) 0
B179(8) 0
B180(8) 0
B181(8) 0
B182(8) 0
B183(8) 0
B184(8) 0
B185(8) 0
B186(8) 0
B187(8) 0
B188(8) 0
B189(8) 0
B190(8) 0
B191(8) 0
B192(8) 0
B193(8) 0
B194(8) 0
B195(8) 0
B196(8) 0
B197(8) 0
B198(8) 0
B199(8) 0
B200(8) 0
B201(8) 0
B202(8) 0
B203(8) 0
B204(8) 0
B205(8) 0
B206(8) 0
B207(8) 0
B208(7) 0
B209(8) 0
B210(8) 0
B211(8) 0
B212(8) 0
B213(8) 0
B214(8) 0
B215(8) 0
B216(8) 0
B217(7) 0
B218(7) 0
B219(8) 0
B220(7) 0
B221(7) 0
B222(8) 0
B223(8) 0
B224(8) 0
B225(8) 0
B226(8) 0
B227(8) 0
B228(8) 0
B229(8) 0
B230(8) 0
B231(7) 0
B232(8) 0
B233(6) 0
B234(6) 0
B235(7) 0
B236(7) 0
B237(5) 0
B238(8) 0
B239(3) 0
B240(5) 0
B241(4) 0
B242(3) 0
B243(6) 0
B244(6) 1
B245(6) 0
B246(6) 0
B247(6) 1
B248(6) 0
B249(6) 1
B250(6) 0
B251(6) 0
B252(6) 0
B253(6) 0
B254(6) 0
B255(6) 0
B256(6) 0
B257(6) 0
B258(6) 0
B259(6) 0
B260(6) 0
B261(6) 0
B262(6) 0
B263(6) 0
B264(6) 0
B265(6) 0
B266(6) 0
B267(6) 0
B268(6) 0
B269(6) 0
B270(6) 0
B271(6) 0
B272(6) 0
B273(6) 0
B274(6) 0
B275(6) 0
B276(6) 0
B277(6) 0
B278(6) 0
B279(6) 0
B280(6) 0
B281(6) 0
B282(6) 0
B283(6) 0
B284(6) 0
B285(6) 0
B286(6) 1
B287(6) 0
B288(6) 0
B289(6) 0
B290(6) 0
B291(6) 0
B292(6) 0
B293(6) 0
B294(6) 0
B295(6) 0
B296(6) 0
B297(6) 0
B298(6) 0
B299(6) 0
B300(6) 0
B301(6) 0
B302(6) 0
B303(6) 0
B304(6) 0
B305(6) 0
B306(6) 0
B307(6) 0
B308(6) 0
B309(6) 0
B310(6) 0
B311(6) 0
B312(6) 0
B313(6) 0
B314(6) 0
B315(6) 0
B316(6) 0
B317(6) 0
B318(6) 0
B319(6) 0
B320(6) 0
B321(6) 0
B322(6) 0
B323(6) 0
B324(6) 0
B325(6) 0
B326(6) 0
B327(6) 0
B328(6) 0
B329(6) 0
B330(6) 0
B331(6) 0
B332(6) 0
B333(6) 0
B334(6) 0
B335(6) 0
B336(6) 0
B337(6) 0
B338(6) 0
B339(6) 0
B340(6) 0
B341(6) 0
B342(6) 0
B343(6) 0
B344(6) 0
B345(6) 0
B346(6) 0
B347(6) 0
B348(6) 0
B349(6) 0
B350(6) 0
B351(6) 0
B352(6) 0
B353(6) 0
B354(6) 0
B355(6) 0
B356(6) 0
B357(6) 0
B358(6) 0
B359(6) 0
B360(6) 0
B361(6) 0
B362(6) 0
B363(6) 0
B364(6) 0
B365(6) 0
B366(6) 0
B367(6) 0
B368(6) 0
B369(6) 0
B370(6) 0
B371(6) 0
B372(6) 0
B373(6) 0
B374(6) 0
B375(6) 0
B376(6) 0
B377(6) 0
B378(6) 0
B379(6) 0
B380(6) 0
B381(6) 0
B382(6) 0
B383(6) 0
B384(6) 0
B385(6) 0
B386(6) 0
B387(6) 0
B388(6) 0
B389(6) 0
B390(6) 0
B391(6) 0
B392(6) 0
B393(6) 0
B394(6) 0
B395(5) 0
B396(6) 0
B397(6) 0
B398(6) 0
B399(6) 0
B400(6) 0
B401(6) 0
B402(6) 0
B403(6) 0
B404(5) 0
B405(6) 0
B406(6) 0
B407(6) 0
B408(6) 0
B409(6) 0
B410(6) 0
B411(6) 0
B412(6) 0
B413(6) 0
B414(6) 0
B415(6) 0
B416(6) 0
B417(6) 0
B418(6) 0
B419(6) 0
B420(6) 0
B421(6) 0
B422(6) 0
B423(6) 0
B424(4) 0
B425(6) 0
B426(6) 0
B427(6) 0
B428(5) 0
B429(6) 0
B430(6) 0
B431(6) 0
B432(6) 0
B433(6) 0
B434(6) 0
B435(6) 0
B436(6) 0
B437(6) 0
B438(5) 0
B439(6) 0
B440(5) 0
B441(6) 0
B442(5) 0
B443(5) 0
B444(5) 0
B445(6) 0
B446(5) 0
B447(4) 0
B448(3) 0
B449(6) 0
B450(8) 0
B451(8) 0
B452(8) 0
B453(8) 0
B454(8) 0
B455(8) 0
B456(8) 1
B457(8) 0
B458(8) 0
B459(8) 0
B460(8) 0
B461(8) 0
B462(8) 0
B463(8) 0
B464(8) 0
B465(8) 0
B466(8) 0
B467(8) 0
B468(8) 0
B469(8) 0
B470(8) 0
B471(8) 0
B472(8) 1
B473(8) 0
B474(8) 0
B475(8) 0
B476(8) 0
B477(8) 0
B478(8) 0
B479(8) 0
B480(8) 0
B481(8) 0
B482(8) 0
B483(8) 0
B484(8) 0
B485(8) 0
B486(8) 0
B487(8) 0
B488(8) 0
B489(8) 0
B490(8) 0
B491(8) 0
B492(8) 0
B493(8) 0
B494(8) 0
B495(8) 0
B496(8) 0
B497(8) 0
B498(8) 0
B499(8) 0
B500(8) 0
B501(8) 0
B502(8) 0
B503(8) 0
B504(8) 0
B505(8) 0
B506(8) 0
B507(8) 0
B508(8) 0
B509(8) 0
B510(8) 0
B511(8) 0
B512(8) 0
B513(8) 0
B514(8) 0
B515(8) 0
B516(8) 0
B517(8) 0
B518(7) 0
B519(8) 0
B520(8) 0
B521(8) 0
B522(7) 0
B523(8) 0
B524(8) 0
B525(6) 0
B526(6) 0
B527(2) 0
